MARKOV
735
 2 2 2 2 2 2 2 2 2 2 2 2 2 2 2 2 2 2 2 2 2 2 2 2 2 2 2 2 2 2 2 2 2 2 2 2 2 2 2 2 2 2 2 2 2 2 2 2 2 2 2 2 2 2 2 2 2 2 2 2 2 2 2 2 2 2 2 2 2 2 2 2 2 2 2 2 2 2 2 2 2 2 2 2 2 2 2 2 2 2 2 2 2 2 2 2 2 2 2 2 2 2 2 2 2 2 2 2 2 2 2 2 2 2 2 2 2 2 2 2 2 2 2 2 2 2 2 2 2 2 2 2 2 2 2 2 2 2 2 2 2 2 2 2 2 2 2 2 2 2 2 2 2 2 2 2 2 2 2 2 2 2 2 2 2 2 2 2 2 2 2 2 2 2 2 2 2 2 2 2 2 2 2 2 2 2 2 2 2 2 2 2 2 2 2 2 2 2 2 2 2 2 2 2 2 2 2 2 2 2 2 2 2 2 2 2 2 2 2 2 2 2 2 2 2 2 2 2 2 2 2 2 2 2 2 2 2 2 2 2 2 2 2 2 2 2 2 2 2 2 2 2 2 2 2 2 2 2 2 2 2 2 2 2 2 2 2 2 2 2 2 2 2 2 2 2 2 2 2 2 2 2 2 2 2 2 2 2 2 2 2 2 2 2 2 2 2 2 2 2 2 2 2 2 2 2 2 2 2 2 2 2 2 2 2 2 2 2 2 2 2 2 2 2 2 2 2 2 2 2 2 2 2 2 2 2 2 2 2 2 2 2 2 2 2 2 2 2 2 2 2 2 2 2 2 2 2 2 2 2 2 2 2 2 2 2 2 2 2 2 2 2 2 2 2 2 2 2 2 2 2 2 2 2 2 2 2 2 2 2 2 2 2 2 2 2 2 2 2 2 2 2 2 2 2 2 2 2 2 2 2 2 2 2 2 2 2 2 2 2 2 2 2 2 2 2 2 2 2 2 2 2 2 2 2 2 2 2 2 2 2 2 2 2 2 2 2 2 2 2 2 2 2 2 2 2 2 2 2 2 2 2 2 2 2 2 2 2 2 2 2 2 2 2 2 2 2 2 2 2 2 2 2 2 2 2 2 2 2 2 2 2 2 2 2 2 2 2 2 2 2 2 2 2 2 2 2 2 2 2 2 2 2 2 2 2 2 2 2 2 2 2 2 2 2 2 2 2 2 2 2 2 2 2 2 2 2 2 2 2 2 2 2 2 2 2 2 2 2 2 2 2 2 2 2 2 2 2 2 2 2 2 2 2 2 2 2 2 2 2 2 2 2 2 2 2 2 2 2 2 2 2 2 2 2 2 2 2 2 2 2 2 2 2 2 2 2 2 2 2 2 2 2 2 2 2 2 2 2 2 2 2 2 2 2 2 2 2 2 2 2 2 2 2 2 2 2 2 2 2 2 2 2 2 2 2 2 2 2 2 2 2 2 2 2 2 2 2 2 2 2 2 2 2 2 2 2 2 2 2 2 2 2 2 2 2 2 2 2 2 2 2 2 2 2 2 2 2 2 2 2 2 2 2 2 2 2 2 2 2 2 2 2 2 2 2 2 2 2 2 2 2 2 2 2 2 2 2 2 2 2 2 2 2 2 2 2 2 2 2 2 2 2 2 2 2 2 2 2 2 2 2 2 2 2
749
3	100 240 734 
3	62 733 734 
3	21 732 733 
3	51 731 732 
3	205 730 731 
3	32 729 730 
3	71 728 729 
3	97 727 728 
3	3 726 727 
3	219 725 726 
3	68 724 725 
3	183 723 724 
3	209 722 723 
3	19 721 722 
3	188 720 721 
3	81 719 720 
3	39 718 719 
3	5 717 718 
3	190 716 717 
3	99 715 716 
3	73 714 715 
3	178 713 714 
3	14 712 713 
3	215 711 712 
3	72 710 711 
3	34 709 710 
3	106 708 709 
3	164 707 708 
3	121 706 707 
3	46 705 706 
3	50 704 705 
3	31 703 704 
3	224 702 703 
3	203 701 702 
3	168 700 701 
3	223 699 700 
3	197 698 699 
3	146 697 698 
3	117 696 697 
1	696 
3	86 199 695 
3	75 694 695 
3	238 693 694 
3	84 692 693 
3	51 691 692 
3	59 690 691 
3	71 689 690 
3	4 688 689 
3	87 687 688 
3	219 686 687 
3	190 685 686 
3	36 684 685 
3	189 683 684 
3	215 682 683 
3	18 681 682 
3	66 680 681 
3	91 679 680 
3	134 678 679 
3	85 677 678 
3	90 676 677 
3	233 675 676 
3	50 674 675 
3	173 673 674 
3	31 672 673 
3	98 671 672 
3	185 670 671 
3	201 669 670 
3	2 668 669 
3	137 667 668 
3	120 666 667 
3	165 665 666 
3	217 664 665 
3	139 663 664 
3	97 662 663 
3	116 661 662 
3	131 660 661 
3	188 659 660 
3	27 658 659 
3	10 657 658 
3	69 656 657 
3	154 655 656 
3	187 654 655 
3	46 653 654 
3	121 652 653 
3	118 651 652 
3	230 650 651 
3	0 649 650 
3	83 648 649 
3	133 647 648 
1	647 
3	76 232 646 
1	646 
3	76 157 645 
3	232 644 645 
3	192 643 644 
1	643 
3	109 174 642 
3	86 641 642 
3	1 640 641 
3	180 639 640 
3	151 638 639 
3	221 637 638 
3	108 636 637 
3	156 635 636 
3	35 634 635 
3	239 633 634 
3	237 632 633 
3	210 631 632 
3	225 630 631 
3	228 629 630 
3	74 628 629 
3	173 627 628 
3	145 626 627 
3	61 625 626 
3	11 624 625 
3	200 623 624 
3	172 622 623 
3	218 621 622 
3	16 620 621 
3	194 619 620 
3	163 618 619 
3	226 617 618 
3	124 616 617 
3	63 615 616 
3	139 614 615 
3	231 613 614 
3	196 612 613 
3	92 611 612 
3	191 610 611 
3	78 609 610 
3	10 608 609 
3	130 607 608 
3	153 606 607 
3	123 605 606 
3	135 604 605 
3	207 603 604 
3	212 602 603 
3	83 601 602 
3	122 600 601 
3	179 599 600 
3	162 598 599 
3	199 597 598 
3	132 596 597 
3	84 595 596 
3	171 594 595 
3	87 593 594 
3	23 592 593 
3	26 591 592 
3	80 590 591 
3	88 589 590 
3	220 588 589 
3	160 587 588 
3	138 586 587 
3	103 585 586 
3	150 584 585 
3	49 583 584 
3	233 582 583 
3	8 581 582 
3	201 580 581 
3	144 579 580 
3	158 578 579 
3	125 577 578 
3	136 576 577 
3	159 575 576 
3	236 574 575 
3	77 573 574 
3	119 572 573 
3	53 571 572 
3	181 570 571 
3	176 569 570 
3	13 568 569 
3	9 567 568 
3	42 566 567 
3	102 565 566 
3	198 564 565 
3	95 563 564 
3	142 562 563 
3	141 561 562 
3	149 560 561 
3	48 559 560 
3	127 558 559 
1	558 
3	76 232 557 
1	557 
3	56 66 556 
3	7 555 556 
3	96 554 555 
3	228 553 554 
3	17 552 553 
3	70 551 552 
3	147 550 551 
3	77 549 550 
3	208 548 549 
3	107 547 548 
3	232 546 547 
3	95 545 546 
3	80 544 545 
3	6 543 544 
3	38 542 543 
3	47 541 542 
3	159 540 541 
3	235 539 540 
1	539 
3	86 109 538 
3	180 537 538 
3	1 536 537 
3	151 535 536 
3	132 534 535 
3	171 533 534 
3	156 532 533 
3	94 531 532 
3	88 530 531 
3	80 529 530 
3	38 528 529 
3	237 527 528 
3	220 526 527 
3	161 525 526 
3	28 524 525 
3	114 523 524 
3	204 522 523 
3	65 521 522 
3	225 520 521 
3	160 519 520 
3	138 518 519 
3	228 517 518 
3	58 516 517 
3	74 515 516 
3	147 514 515 
3	150 513 514 
3	49 512 513 
3	144 511 512 
3	200 510 511 
3	159 509 510 
3	218 508 509 
3	16 507 508 
3	194 506 507 
3	163 505 506 
3	96 504 505 
3	217 503 504 
3	124 502 503 
3	119 501 502 
3	196 500 501 
3	78 499 500 
3	181 498 499 
3	176 497 498 
3	13 496 497 
3	9 495 496 
3	7 494 495 
3	42 493 494 
3	70 492 493 
3	202 491 492 
3	126 490 491 
3	135 489 490 
3	232 488 489 
3	102 487 488 
3	207 486 487 
3	95 485 486 
3	141 484 485 
3	149 483 484 
3	184 482 483 
3	127 481 482 
1	481 
3	6 76 480 
3	232 479 480 
3	28 478 479 
1	478 
3	56 66 477 
3	7 476 477 
3	96 475 476 
3	228 474 475 
3	17 473 474 
3	70 472 473 
3	77 471 472 
3	147 470 471 
3	208 469 470 
3	107 468 469 
3	232 467 468 
3	95 466 467 
3	80 465 466 
3	6 464 465 
3	38 463 464 
3	47 462 463 
3	159 461 462 
3	235 460 461 
3	204 459 460 
1	459 
3	65 202 458 
3	171 457 458 
3	237 456 457 
1	456 
3	86 109 455 
3	1 454 455 
3	180 453 454 
3	151 452 453 
3	132 451 452 
3	171 450 451 
3	156 449 450 
3	80 448 449 
3	88 447 448 
3	237 446 447 
3	220 445 446 
3	160 444 445 
3	225 443 444 
3	138 442 443 
3	228 441 442 
3	74 440 441 
3	150 439 440 
3	49 438 439 
3	144 437 438 
3	200 436 437 
3	159 435 436 
3	218 434 435 
3	16 433 434 
3	194 432 433 
3	163 431 432 
3	119 430 431 
3	196 429 430 
3	181 428 429 
3	78 427 428 
3	176 426 427 
3	13 425 426 
3	9 424 425 
3	42 423 424 
3	135 422 423 
3	102 421 422 
3	207 420 421 
3	95 419 420 
3	141 418 419 
3	149 417 418 
3	127 416 417 
1	416 
3	174 180 415 
3	54 414 415 
3	71 413 414 
3	209 412 413 
3	94 411 412 
3	35 410 411 
3	39 409 410 
3	237 408 409 
3	72 407 408 
3	225 406 407 
3	152 405 406 
3	128 404 405 
3	89 403 404 
3	31 402 403 
3	113 401 402 
3	104 400 401 
3	25 399 400 
3	175 398 399 
3	200 397 398 
3	218 396 397 
3	194 395 396 
3	163 394 395 
3	124 393 394 
3	217 392 393 
3	205 391 392 
3	63 390 391 
3	213 389 390 
3	196 388 389 
3	76 387 388 
3	92 386 387 
3	79 385 386 
3	202 384 385 
3	70 383 384 
3	43 382 383 
3	15 381 382 
3	83 380 381 
3	122 379 380 
3	197 378 379 
3	84 377 378 
3	208 376 377 
3	166 375 376 
3	33 374 375 
3	57 373 374 
3	171 372 373 
3	87 371 372 
3	234 370 371 
3	68 369 370 
3	60 368 369 
3	88 367 368 
3	40 366 367 
3	220 365 366 
3	114 364 365 
3	129 363 364 
3	214 362 363 
3	65 361 362 
3	66 360 361 
3	138 359 360 
3	58 358 359 
3	12 357 358 
3	115 356 357 
3	50 355 356 
3	49 354 355 
3	227 353 354 
3	193 352 353 
3	185 351 352 
3	158 350 351 
3	22 349 350 
3	47 348 349 
3	6 347 348 
3	159 346 347 
3	45 345 346 
3	120 344 345 
3	56 343 344 
3	165 342 343 
3	20 341 342 
3	77 340 341 
3	101 339 340 
3	188 338 339 
3	216 337 338 
3	176 336 337 
3	69 335 336 
3	9 334 335 
3	143 333 334 
3	52 332 333 
3	46 331 332 
3	140 330 331 
3	102 329 330 
3	95 328 329 
3	222 327 328 
3	82 326 327 
3	184 325 326 
3	155 324 325 
3	109 323 324 
3	112 322 323 
3	86 321 322 
3	44 320 321 
3	1 319 320 
3	151 318 319 
3	221 317 318 
3	51 316 317 
3	32 315 316 
3	156 314 315 
3	219 313 314 
3	38 312 313 
3	182 311 312 
3	229 310 311 
3	28 309 310 
3	204 308 309 
3	228 307 308 
3	147 306 307 
3	74 305 306 
3	173 304 305 
3	105 303 304 
3	206 302 303 
3	170 301 302 
3	211 300 301 
3	16 299 300 
3	55 298 299 
3	97 297 298 
3	167 296 297 
3	231 295 296 
3	148 294 295 
3	30 293 294 
3	110 292 293 
3	191 291 292 
3	78 290 291 
3	130 289 290 
3	169 288 289 
3	153 287 288 
3	126 286 287 
3	123 285 286 
3	135 284 285 
3	107 283 284 
3	64 282 283 
3	232 281 282 
3	168 280 281 
3	207 279 280 
3	179 278 279 
3	93 277 278 
3	195 276 277 
3	199 275 276 
3	111 274 275 
3	132 273 274 
3	238 272 273 
3	177 271 272 
3	4 270 271 
3	23 269 270 
3	29 268 269 
3	26 267 268 
3	80 266 267 
3	161 265 266 
3	215 264 265 
3	160 263 264 
3	17 262 263 
3	150 261 262 
3	233 260 261 
3	186 259 260 
3	144 258 259 
3	125 257 258 
3	96 256 257 
3	236 255 256 
3	119 254 255 
3	67 253 254 
3	41 252 253 
3	37 251 252 
3	181 250 251 
3	14 249 250 
3	13 248 249 
3	7 247 248 
3	42 246 247 
3	24 245 246 
3	141 244 245 
3	149 243 244 
3	48 242 243 
3	127 241 242 
1	241 
1	174 
1	62 
1	180 
1	54 
1	71 
1	209 
1	35 
1	94 
1	39 
1	237 
1	210 
1	189 
1	72 
1	225 
1	152 
1	128 
1	134 
1	85 
1	89 
1	31 
1	113 
1	104 
1	25 
1	200 
1	175 
1	172 
1	218 
1	194 
1	163 
1	124 
1	217 
1	157 
1	205 
1	63 
1	213 
1	196 
1	76 
1	81 
1	92 
1	10 
1	79 
1	70 
1	202 
1	43 
1	15 
1	203 
1	230 
1	212 
1	83 
1	122 
1	197 
1	162 
1	235 
1	21 
1	84 
1	208 
1	166 
1	33 
1	57 
1	87 
1	171 
1	234 
1	68 
1	60 
1	88 
1	40 
1	190 
1	73 
1	220 
1	114 
1	129 
1	214 
1	66 
1	65 
1	138 
1	58 
1	12 
1	115 
1	49 
1	50 
1	227 
1	193 
1	185 
1	201 
1	8 
1	158 
1	136 
1	22 
1	6 
1	47 
1	159 
1	45 
1	120 
1	240 
1	56 
1	165 
1	77 
1	20 
1	116 
1	131 
1	101 
1	188 
1	216 
1	176 
1	69 
1	9 
1	143 
1	52 
1	164 
1	46 
1	118 
1	140 
1	102 
1	95 
1	222 
1	82 
1	184 
1	155 
1	100 
1	109 
1	86 
1	112 
1	1 
1	44 
1	151 
1	75 
1	221 
1	51 
1	59 
1	108 
1	32 
1	156 
1	219 
1	239 
1	38 
1	182 
1	229 
1	99 
1	28 
1	36 
1	204 
1	18 
1	91 
1	228 
1	74 
1	147 
1	173 
1	145 
1	224 
1	61 
1	11 
1	105 
1	206 
1	137 
1	170 
1	117 
1	211 
1	16 
1	226 
1	55 
1	139 
1	167 
1	97 
1	192 
1	231 
1	148 
1	27 
1	110 
1	30 
1	191 
1	78 
1	130 
1	154 
1	169 
1	153 
1	126 
1	123 
1	121 
1	64 
1	135 
1	107 
1	232 
1	168 
1	207 
1	179 
1	93 
1	195 
1	199 
1	111 
1	132 
1	238 
1	177 
1	4 
1	23 
1	29 
1	26 
1	80 
1	5 
1	178 
1	161 
1	215 
1	160 
1	17 
1	34 
1	103 
1	90 
1	233 
1	150 
1	186 
1	98 
1	144 
1	125 
1	223 
1	146 
1	2 
1	236 
1	96 
1	119 
1	67 
1	3 
1	53 
1	41 
1	183 
1	19 
1	37 
1	181 
1	14 
1	13 
1	7 
1	187 
1	42 
1	106 
1	198 
1	0 
1	24 
1	142 
1	141 
1	149 
1	48 
1	133 
1	127 
0	

8
 1 0 0.8 0.2 0 1 0 1
8
 1 0 0 1 0.5 0 0.5 1
8
 1 0 0 1 0.5 0 0.5 1
8
 1 0 0 1 0.8 0 0.2 1
8
 1 0 0 1 0.5 0 0.5 1
8
 1 0 0 1 0.5 0 0.5 1
8
 1 0 0 1 0.4 0 0.6 1
8
 1 0 0 1 0.3 0 0.7 1
8
 1 0 0 1 0.39 0 0.61 1
8
 1 0 0 1 0.4 0 0.6 1
8
 1 0 0 1 0.5 0 0.5 1
8
 1 0 0 1 0.89 0 0.11 1
8
 1 0 0 1 0.5 0 0.5 1
8
 1 0 0 1 0.01 0 0.99 1
8
 1 0 0 1 0.5 0 0.5 1
8
 1 0 0 1 0.7 0 0.3 1
8
 1 0 0 1 0.5 0 0.5 1
8
 1 0 0 1 0.1 0 0.9 1
8
 1 0 0 1 0.5 0 0.5 1
8
 1 0 0 1 0.89 0 0.11 1
8
 1 0 0 1 0 0 1 1
8
 1 0 0 1 0.5 0 0.5 1
8
 1 0 0 1 0.5 0 0.5 1
8
 1 0 0 1 0.5 0 0.5 1
8
 1 0 0 1 0.5 0 0.5 1
8
 1 0 0 1 0.1 0 0.9 1
8
 1 0 0 1 0.8 0 0.2 1
8
 1 0 0 1 0.7 0 0.3 1
8
 1 0 0 1 0.5 0 0.5 1
8
 1 0 0 1 0.8 0 0.2 1
8
 1 0 0 1 0.5 0 0.5 1
8
 1 0 0 1 0.4 0 0.6 1
8
 1 0 0 1 0.5 0 0.5 1
8
 1 0 0 1 0.5 0 0.5 1
8
 1 0 0 1 0.5 0 0.5 1
8
 1 0 0 1 0.7 0 0.3 1
8
 1 0 0 1 0.5 0 0.5 1
8
 1 0 0 1 0 0 1 1
8
 1 0 0 1 0.9 0 0.1 1
2
 0.03 1
8
 1 0 0.5 0.5 0.2 0.8 0.1 0.9
8
 1 0 0 1 0.6 0 0.4 1
8
 1 0 0 1 0.4 0 0.6 1
8
 1 0 0 1 0.5 0 0.5 1
8
 1 0 0 1 0.4 0 0.6 1
8
 1 0 0 1 0.5 0 0.5 1
8
 1 0 0 1 0.4 0 0.6 1
8
 1 0 0 1 0.1 0 0.9 1
8
 1 0 0 1 0.5 0 0.5 1
8
 1 0 0 1 0.4 0 0.6 1
8
 1 0 0 1 0.5 0 0.5 1
8
 1 0 0 1 0.2 0 0.8 1
8
 1 0 0 1 0.5 0 0.5 1
8
 1 0 0 1 0.4 0 0.6 1
8
 1 0 0 1 0.1 0 0.9 1
8
 1 0 0 1 0.75 0 0.25 1
8
 1 0 0 1 0.2 0 0.8 1
8
 1 0 0 1 0.1 0 0.9 1
8
 1 0 0 1 0.5 0 0.5 1
8
 1 0 0 1 0.5 0 0.5 1
8
 1 0 0 1 0.2 0 0.8 1
8
 1 0 0 1 0.9 0 0.1 1
8
 1 0 0 1 0.5 0 0.5 1
8
 1 0 0 1 0.4 0 0.6 1
8
 1 0 0 1 0.5 0 0.5 1
8
 1 0 0 1 0.2 0 0.8 1
8
 1 0 0 1 0.5 0 0.5 1
8
 1 0 0 1 0.5 0 0.5 1
8
 1 0 0 1 0.5 0 0.5 1
8
 1 0 0 1 0.4 0 0.6 1
8
 1 0 0 1 0.89 0 0.11 1
8
 1 0 0 1 0.5 0 0.5 1
8
 1 0 0 1 0.5 0 0.5 1
8
 1 0 0 1 0.9 0 0.1 1
8
 1 0 0 1 0.1 0 0.9 1
8
 1 0 0 1 0.1 0 0.9 1
8
 1 0 0 1 0.4 0 0.6 1
8
 1 0 0 1 0.2 0 0.8 1
8
 1 0 0 1 0.4 0 0.6 1
8
 1 0 0 1 0.5 0 0.5 1
8
 1 0 0 1 0.2 0 0.8 1
8
 1 0 0 1 0.2 0 0.8 1
8
 1 0 0 1 0.4 0 0.6 1
8
 1 0 0 1 0.5 0 0.5 1
8
 1 0 0 1 0.1 0 0.9 1
8
 1 0 0 1 0.05 0 0.95 1
8
 1 0 0 1 0.6 0 0.4 1
8
 1 0 0 1 0.5 0 0.5 1
8
 1 0 0 1 0.5 0 0.5 1
2
 0.03 1
8
 1 0 0.05 0.95 0.3 0.7 0.015 0.985
2
 0.03 1
8
 1 0 0.5 0.5 0.3 0.7 0.15 0.85
8
 1 0 0 1 0.05 0 0.95 1
8
 1 0 0 1 0.5 0 0.5 1
2
 0.03 1
8
 1 0 0.9 0.1 0.05 0.95 0.045 0.955
8
 1 0 0 1 0.9 0 0.1 1
8
 1 0 0 1 0.05 0 0.95 1
8
 1 0 0 1 0.05 0 0.95 1
8
 1 0 0 1 0.05 0 0.95 1
8
 1 0 0 1 0.9 0 0.1 1
8
 1 0 0 1 0.3 0 0.7 1
8
 1 0 0 1 0.1 0 0.9 1
8
 1 0 0 1 0.9 0 0.1 1
8
 1 0 0 1 0.3 0 0.7 1
8
 1 0 0 1 0.05 0 0.95 1
8
 1 0 0 1 0.3 0 0.7 1
8
 1 0 0 1 0.05 0 0.95 1
8
 1 0 0 1 0.05 0 0.95 1
8
 1 0 0 1 0.05 0 0.95 1
8
 1 0 0 1 0.5 0 0.5 1
8
 1 0 0 1 0.3 0 0.7 1
8
 1 0 0 1 0.5 0 0.5 1
8
 1 0 0 1 0.9 0 0.1 1
8
 1 0 0 1 0.05 0 0.95 1
8
 1 0 0 1 0.3 0 0.7 1
8
 1 0 0 1 0.05 0 0.95 1
8
 1 0 0 1 0.05 0 0.95 1
8
 1 0 0 1 0.05 0 0.95 1
8
 1 0 0 1 0.05 0 0.95 1
8
 1 0 0 1 0.5 0 0.5 1
8
 1 0 0 1 0.4 0 0.6 1
8
 1 0 0 1 0.9 0 0.1 1
8
 1 0 0 1 0.5 0 0.5 1
8
 1 0 0 1 0.7 0 0.3 1
8
 1 0 0 1 0.01 0 0.99 1
8
 1 0 0 1 0.9 0 0.1 1
8
 1 0 0 1 0.9 0 0.1 1
8
 1 0 0 1 0.05 0 0.95 1
8
 1 0 0 1 0.4 0 0.6 1
8
 1 0 0 1 0.9 0 0.1 1
8
 1 0 0 1 0.9 0 0.1 1
8
 1 0 0 1 0.75 0 0.25 1
8
 1 0 0 1 0.05 0 0.95 1
8
 1 0 0 1 0.05 0 0.95 1
8
 1 0 0 1 0.3 0 0.7 1
8
 1 0 0 1 0.9 0 0.1 1
8
 1 0 0 1 0.5 0 0.5 1
8
 1 0 0 1 0.9 0 0.1 1
8
 1 0 0 1 0.3 0 0.7 1
8
 1 0 0 1 0.5 0 0.5 1
8
 1 0 0 1 0.05 0 0.95 1
8
 1 0 0 1 0.9 0 0.1 1
8
 1 0 0 1 0.5 0 0.5 1
8
 1 0 0 1 0.9 0 0.1 1
8
 1 0 0 1 0.9 0 0.1 1
8
 1 0 0 1 0.9 0 0.1 1
8
 1 0 0 1 0.05 0 0.95 1
8
 1 0 0 1 0.05 0 0.95 1
8
 1 0 0 1 0.05 0 0.95 1
8
 1 0 0 1 0.05 0 0.95 1
8
 1 0 0 1 0.05 0 0.95 1
8
 1 0 0 1 0.3 0 0.7 1
8
 1 0 0 1 0.05 0 0.95 1
8
 1 0 0 1 0.05 0 0.95 1
8
 1 0 0 1 0.9 0 0.1 1
8
 1 0 0 1 0.3 0 0.7 1
8
 1 0 0 1 0.5 0 0.5 1
8
 1 0 0 1 0.05 0 0.95 1
8
 1 0 0 1 0.1 0 0.9 1
8
 1 0 0 1 0.9 0 0.1 1
8
 1 0 0 1 0.89 0 0.11 1
8
 1 0 0 1 0.05 0 0.95 1
8
 1 0 0 1 0.9 0 0.1 1
8
 1 0 0 1 0.89 0 0.11 1
8
 1 0 0 1 0.05 0 0.95 1
8
 1 0 0 1 0.09 0 0.91 1
8
 1 0 0 1 0.05 0 0.95 1
8
 1 0 0 1 0.02 0 0.98 1
8
 1 0 0 1 0.05 0 0.95 1
8
 1 0 0 1 0.2 0 0.8 1
8
 1 0 0 1 0.05 0 0.95 1
8
 1 0 0 1 0.05 0 0.95 1
8
 1 0 0 1 0.3 0 0.7 1
8
 1 0 0 1 0.05 0 0.95 1
8
 1 0 0 1 0.4 0 0.6 1
8
 1 0 0 1 0.05 0 0.95 1
8
 1 0 0 1 0.05 0 0.95 1
8
 1 0 0 1 0.9 0 0.1 1
8
 1 0 0 1 0.05 0 0.95 1
2
 0.03 1
8
 1 0 0.2 0.8 0.3 0.7 0.06 0.94
2
 0.03 1
8
 1 0 0.57 0.43 0.5 0.5 0.285 0.715
8
 1 0 0 1 0.1 0 0.9 1
8
 1 0 0 1 0 0 1 1
8
 1 0 0 1 0.09 0 0.91 1
8
 1 0 0 1 0.5 0 0.5 1
8
 1 0 0 1 0.1 0 0.9 1
8
 1 0 0 1 0 0 1 1
8
 1 0 0 1 0.5 0 0.5 1
8
 1 0 0 1 0.5 0 0.5 1
8
 1 0 0 1 0.5 0 0.5 1
8
 1 0 0 1 0 0 1 1
8
 1 0 0 1 0.01 0 0.99 1
8
 1 0 0 1 0.5 0 0.5 1
8
 1 0 0 1 0.5 0 0.5 1
8
 1 0 0 1 0 0 1 1
8
 1 0 0 1 0.4 0 0.6 1
8
 1 0 0 1 0.1 0 0.9 1
8
 1 0 0 1 0.01 0 0.99 1
2
 0.03 1
8
 1 0 0 1 0 1 0 1
8
 1 0 0 1 0 0 1 1
8
 1 0 0 1 0 0 1 1
8
 1 0 0 1 0 0 1 1
8
 1 0 0 1 0 0 1 1
8
 1 0 0 1 0 0 1 1
8
 1 0 0 1 0 0 1 1
8
 1 0 0 1 0 0 1 1
8
 1 0 0 1 0 0 1 1
8
 1 0 0 1 0 0 1 1
8
 1 0 0 1 0 0 1 1
8
 1 0 0 1 0 0 1 1
8
 1 0 0 1 0 0 1 1
8
 1 0 0 1 0 0 1 1
8
 1 0 0 1 0 0 1 1
8
 1 0 0 1 0 0 1 1
8
 1 0 0 1 0 0 1 1
8
 1 0 0 1 0 0 1 1
8
 1 0 0 1 0 0 1 1
8
 1 0 0 1 0 0 1 1
8
 1 0 0 1 0 0 1 1
8
 1 0 0 1 0 0 1 1
8
 1 0 0 1 0 0 1 1
8
 1 0 0 1 0 0 1 1
8
 1 0 0 1 0 0 1 1
8
 1 0 0 1 0 0 1 1
8
 1 0 0 1 0 0 1 1
8
 1 0 0 1 0 0 1 1
8
 1 0 0 1 0 0 1 1
8
 1 0 0 1 0 0 1 1
8
 1 0 0 1 0 0 1 1
8
 1 0 0 1 0 0 1 1
8
 1 0 0 1 0 0 1 1
8
 1 0 0 1 0 0 1 1
8
 1 0 0 1 0 0 1 1
8
 1 0 0 1 0 0 1 1
8
 1 0 0 1 0 0 1 1
8
 1 0 0 1 0 0 1 1
8
 1 0 0 1 0 0 1 1
8
 1 0 0 1 0 0 1 1
8
 1 0 0 1 0 0 1 1
8
 1 0 0 1 0 0 1 1
8
 1 0 0 1 0 0 1 1
8
 1 0 0 1 0 0 1 1
8
 1 0 0 1 0 0 1 1
8
 1 0 0 1 0 0 1 1
8
 1 0 0 1 0 0 1 1
8
 1 0 0 1 0 0 1 1
8
 1 0 0 1 0 0 1 1
8
 1 0 0 1 0 0 1 1
8
 1 0 0 1 0 0 1 1
8
 1 0 0 1 0 0 1 1
8
 1 0 0 1 0 0 1 1
8
 1 0 0 1 0 0 1 1
8
 1 0 0 1 0 0 1 1
8
 1 0 0 1 0 0 1 1
8
 1 0 0 1 0 0 1 1
8
 1 0 0 1 0 0 1 1
2
 0.03 1
8
 1 0 0.3 0.7 0.5 0.5 0.15 0.85
8
 1 0 0 1 0 0 1 1
8
 1 0 0 1 0.01 0 0.99 1
2
 0.03 1
8
 1 0 0.57 0.43 0.5 0.5 0.285 0.715
8
 1 0 0 1 0.1 0 0.9 1
8
 1 0 0 1 0.01 0 0.99 1
8
 1 0 0 1 0.09 0 0.91 1
8
 1 0 0 1 0.5 0 0.5 1
8
 1 0 0 1 0.1 0 0.9 1
8
 1 0 0 1 0.5 0 0.5 1
8
 1 0 0 1 0.01 0 0.99 1
8
 1 0 0 1 0.5 0 0.5 1
8
 1 0 0 1 0.5 0 0.5 1
8
 1 0 0 1 0.05 0 0.95 1
8
 1 0 0 1 0.01 0 0.99 1
8
 1 0 0 1 0.5 0 0.5 1
8
 1 0 0 1 0.5 0 0.5 1
8
 1 0 0 1 0.01 0 0.99 1
8
 1 0 0 1 0.4 0 0.6 1
8
 1 0 0 1 0.1 0 0.9 1
8
 1 0 0 1 0.01 0 0.99 1
8
 1 0 0 1 0.2 0 0.8 1
2
 0.03 1
8
 1 0 0 1 0 1 0 1
8
 1 0 0 1 0 0 1 1
8
 1 0 0 1 0 0 1 1
2
 0.03 1
8
 1 0 0.05 0.95 0.05 0.95 0.0025 0.9975
8
 1 0 0 1 0.05 0 0.95 1
8
 1 0 0 1 0.05 0 0.95 1
8
 1 0 0 1 0.05 0 0.95 1
8
 1 0 0 1 0.05 0 0.95 1
8
 1 0 0 1 0.05 0 0.95 1
8
 1 0 0 1 0.05 0 0.95 1
8
 1 0 0 1 0.05 0 0.95 1
8
 1 0 0 1 0.05 0 0.95 1
8
 1 0 0 1 0.05 0 0.95 1
8
 1 0 0 1 0.05 0 0.95 1
8
 1 0 0 1 0.05 0 0.95 1
8
 1 0 0 1 0.05 0 0.95 1
8
 1 0 0 1 0.05 0 0.95 1
8
 1 0 0 1 0.05 0 0.95 1
8
 1 0 0 1 0.05 0 0.95 1
8
 1 0 0 1 0.05 0 0.95 1
8
 1 0 0 1 0.05 0 0.95 1
8
 1 0 0 1 0.05 0 0.95 1
8
 1 0 0 1 0.05 0 0.95 1
8
 1 0 0 1 0.05 0 0.95 1
8
 1 0 0 1 0.05 0 0.95 1
8
 1 0 0 1 0.05 0 0.95 1
8
 1 0 0 1 0.05 0 0.95 1
8
 1 0 0 1 0.05 0 0.95 1
8
 1 0 0 1 0.05 0 0.95 1
8
 1 0 0 1 0.05 0 0.95 1
8
 1 0 0 1 0.05 0 0.95 1
8
 1 0 0 1 0.05 0 0.95 1
8
 1 0 0 1 0.05 0 0.95 1
8
 1 0 0 1 0.05 0 0.95 1
8
 1 0 0 1 0.05 0 0.95 1
8
 1 0 0 1 0.05 0 0.95 1
8
 1 0 0 1 0.05 0 0.95 1
8
 1 0 0 1 0.05 0 0.95 1
8
 1 0 0 1 0.05 0 0.95 1
8
 1 0 0 1 0.05 0 0.95 1
8
 1 0 0 1 0.05 0 0.95 1
8
 1 0 0 1 0.05 0 0.95 1
8
 1 0 0 1 0.05 0 0.95 1
2
 0.03 1
8
 1 0 0 1 0.9 0.1 0 1
8
 1 0 0 1 0.2 0 0.8 1
8
 1 0 0 1 0.4 0 0.6 1
8
 1 0 0 1 0.5 0 0.5 1
8
 1 0 0 1 0 0 1 1
8
 1 0 0 1 0.9 0 0.1 1
8
 1 0 0 1 0.5 0 0.5 1
8
 1 0 0 1 0.89 0 0.11 1
8
 1 0 0 1 0.5 0 0.5 1
8
 1 0 0 1 0 0 1 1
8
 1 0 0 1 0.89 0 0.11 1
8
 1 0 0 1 0.5 0 0.5 1
8
 1 0 0 1 0.2 0 0.8 1
8
 1 0 0 1 0.4 0 0.6 1
8
 1 0 0 1 0.1 0 0.9 1
8
 1 0 0 1 0.5 0 0.5 1
8
 1 0 0 1 0.5 0 0.5 1
8
 1 0 0 1 0.1 0 0.9 1
8
 1 0 0 1 0 0 1 1
8
 1 0 0 1 0.5 0 0.5 1
8
 1 0 0 1 0.01 0 0.99 1
8
 1 0 0 1 0 0 1 1
8
 1 0 0 1 0 0 1 1
8
 1 0 0 1 0 0 1 1
8
 1 0 0 1 0.5 0 0.5 1
8
 1 0 0 1 0.9 0 0.1 1
8
 1 0 0 1 0.5 0 0.5 1
8
 1 0 0 1 0 0 1 1
8
 1 0 0 1 0.5 0 0.5 1
8
 1 0 0 1 0.9 0 0.1 1
8
 1 0 0 1 0.5 0 0.5 1
8
 1 0 0 1 0.1 0 0.9 1
8
 1 0 0 1 0 0 1 1
8
 1 0 0 1 0.1 0 0.9 1
8
 1 0 0 1 0.5 0 0.5 1
8
 1 0 0 1 0.9 0 0.1 1
8
 1 0 0 1 0.5 0 0.5 1
8
 1 0 0 1 0.5 0 0.5 1
8
 1 0 0 1 0.9 0 0.1 1
8
 1 0 0 1 0.09 0 0.91 1
8
 1 0 0 1 0.5 0 0.5 1
8
 1 0 0 1 0.1 0 0.9 1
8
 1 0 0 1 0.5 0 0.5 1
8
 1 0 0 1 0.5 0 0.5 1
8
 1 0 0 1 0.9 0 0.1 1
8
 1 0 0 1 0.09 0 0.91 1
8
 1 0 0 1 0.5 0 0.5 1
8
 1 0 0 1 0.5 0 0.5 1
8
 1 0 0 1 0 0 1 1
8
 1 0 0 1 0.5 0 0.5 1
8
 1 0 0 1 0 0 1 1
8
 1 0 0 1 0 0 1 1
8
 1 0 0 1 0.5 0 0.5 1
8
 1 0 0 1 0.1 0 0.9 1
8
 1 0 0 1 0.5 0 0.5 1
8
 1 0 0 1 0.57 0 0.43 1
8
 1 0 0 1 0 0 1 1
8
 1 0 0 1 0 0 1 1
8
 1 0 0 1 0.5 0 0.5 1
8
 1 0 0 1 0.5 0 0.5 1
8
 1 0 0 1 0.9 0 0.1 1
8
 1 0 0 1 0 0 1 1
8
 1 0 0 1 0.5 0 0.5 1
8
 1 0 0 1 0.1 0 0.9 1
8
 1 0 0 1 0.5 0 0.5 1
8
 1 0 0 1 0.1 0 0.9 1
8
 1 0 0 1 0.5 0 0.5 1
8
 1 0 0 1 0.4 0 0.6 1
8
 1 0 0 1 0.5 0 0.5 1
8
 1 0 0 1 0 0 1 1
8
 1 0 0 1 0.5 0 0.5 1
8
 1 0 0 1 0.9 0 0.1 1
8
 1 0 0 1 0.5 0 0.5 1
8
 1 0 0 1 0.89 0 0.11 1
8
 1 0 0 1 0.5 0 0.5 1
8
 1 0 0 1 0.5 0 0.5 1
8
 1 0 0 1 0.5 0 0.5 1
8
 1 0 0 1 0.4 0 0.6 1
8
 1 0 0 1 0.5 0 0.5 1
8
 1 0 0 1 0 0 1 1
8
 1 0 0 1 0.1 0 0.9 1
8
 1 0 0 1 0.6 0 0.4 1
8
 1 0 0 1 0.5 0 0.5 1
8
 1 0 0 1 0.1 0 0.9 1
8
 1 0 0 1 0.4 0 0.6 1
8
 1 0 0 1 0.5 0 0.5 1
8
 1 0 0 1 0 0 1 1
8
 1 0 0 1 0 0 1 1
8
 1 0 0 1 0.1 0 0.9 1
8
 1 0 0 1 0.59 0 0.41 1
8
 1 0 0 1 0 0 1 1
8
 1 0 0 1 0.4 0 0.6 1
8
 1 0 0 1 0 0 1 1
8
 1 0 0 1 0.5 0 0.5 1
8
 1 0 0 1 0.9 0 0.1 1
8
 1 0 0 1 0.5 0 0.5 1
8
 1 0 0 1 0 0 1 1
8
 1 0 0 1 0 0 1 1
8
 1 0 0 1 0.9 0 0.1 1
8
 1 0 0 1 0.4 0 0.6 1
8
 1 0 0 1 0.5 0 0.5 1
8
 1 0 0 1 0.1 0 0.9 1
8
 1 0 0 1 0.4 0 0.6 1
8
 1 0 0 1 0 0 1 1
8
 1 0 0 1 0.5 0 0.5 1
8
 1 0 0 1 0.09 0 0.91 1
8
 1 0 0 1 0 0 1 1
8
 1 0 0 1 0 0 1 1
8
 1 0 0 1 0 0 1 1
8
 1 0 0 1 0 0 1 1
8
 1 0 0 1 0 0 1 1
8
 1 0 0 1 0.5 0 0.5 1
8
 1 0 0 1 0.5 0 0.5 1
8
 1 0 0 1 0.5 0 0.5 1
8
 1 0 0 1 0.5 0 0.5 1
8
 1 0 0 1 0.5 0 0.5 1
8
 1 0 0 1 0 0 1 1
8
 1 0 0 1 0.5 0 0.5 1
8
 1 0 0 1 0.4 0 0.6 1
8
 1 0 0 1 0.5 0 0.5 1
8
 1 0 0 1 0.7 0 0.3 1
8
 1 0 0 1 0.5 0 0.5 1
8
 1 0 0 1 0.89 0 0.11 1
8
 1 0 0 1 0.5 0 0.5 1
8
 1 0 0 1 0.9 0 0.1 1
8
 1 0 0 1 0 0 1 1
8
 1 0 0 1 0.9 0 0.1 1
8
 1 0 0 1 0.5 0 0.5 1
8
 1 0 0 1 0.5 0 0.5 1
8
 1 0 0 1 0 0 1 1
8
 1 0 0 1 0.75 0 0.25 1
8
 1 0 0 1 0 0 1 1
8
 1 0 0 1 0.09 0 0.91 1
8
 1 0 0 1 0.5 0 0.5 1
8
 1 0 0 1 0 0 1 1
8
 1 0 0 1 0.5 0 0.5 1
8
 1 0 0 1 0 0 1 1
8
 1 0 0 1 0.9 0 0.1 1
8
 1 0 0 1 0.7 0 0.3 1
8
 1 0 0 1 0.4 0 0.6 1
8
 1 0 0 1 0.5 0 0.5 1
8
 1 0 0 1 0.1 0 0.9 1
8
 1 0 0 1 0 0 1 1
8
 1 0 0 1 0.6 0 0.4 1
8
 1 0 0 1 0.5 0 0.5 1
8
 1 0 0 1 0.4 0 0.6 1
8
 1 0 0 1 0.9 0 0.1 1
8
 1 0 0 1 0.5 0 0.5 1
8
 1 0 0 1 0.9 0 0.1 1
8
 1 0 0 1 0 0 1 1
8
 1 0 0 1 0 0 1 1
8
 1 0 0 1 0.4 0 0.6 1
8
 1 0 0 1 0 0 1 1
8
 1 0 0 1 0.09 0 0.91 1
8
 1 0 0 1 0 0 1 1
8
 1 0 0 1 0.9 0 0.1 1
8
 1 0 0 1 0.5 0 0.5 1
8
 1 0 0 1 0 0 1 1
8
 1 0 0 1 0.9 0 0.1 1
8
 1 0 0 1 0 0 1 1
8
 1 0 0 1 0.9 0 0.1 1
8
 1 0 0 1 0 0 1 1
8
 1 0 0 1 0.05 0 0.95 1
8
 1 0 0 1 0.5 0 0.5 1
8
 1 0 0 1 0.5 0 0.5 1
8
 1 0 0 1 0 0 1 1
8
 1 0 0 1 0.5 0 0.5 1
8
 1 0 0 1 0 0 1 1
8
 1 0 0 1 0.1 0 0.9 1
8
 1 0 0 1 0 0 1 1
8
 1 0 0 1 0.5 0 0.5 1
8
 1 0 0 1 0 0 1 1
8
 1 0 0 1 0 0 1 1
8
 1 0 0 1 0.9 0 0.1 1
8
 1 0 0 1 0.01 0 0.99 1
2
 0.03 1
2
 0.9995 0.0005
2
 0.9999 0.0001
2
 0.99995 5e-05
2
 0.999995 5e-06
2
 0.9999 0.0001
2
 0.99999 1e-05
2
 0.99975 0.00025
2
 0.999 0.001
2
 0.99999 1e-05
2
 0.99995 5e-05
2
 0.9999 0.0001
2
 0.9998 0.0002
2
 0.99999 1e-05
2
 0.9999 0.0001
2
 0.9999 0.0001
2
 0.99975 0.00025
2
 0.999998 2e-06
2
 0.9999 0.0001
2
 0.9999 0.0001
2
 0.9999 0.0001
2
 0.999999 1e-06
2
 0.99989 0.00011
2
 0.9999 0.0001
2
 0.9999 0.0001
2
 0.9999 0.0001
2
 0.9999 0.0001
2
 0.99998 2e-05
2
 0.99999 1e-05
2
 0.9999 0.0001
2
 0.99995 5e-05
2
 0.998 0.002
2
 0.99992 8e-05
2
 0.99974 0.00026
2
 0.999998 2e-06
2
 0.99989 0.00011
2
 0.99995 5e-05
2
 0.9999 0.0001
2
 1 1e-07
2
 0.99996 4e-05
2
 0.99982 0.00018
2
 0.99981 0.00019
2
 0.99998 2e-05
2
 0.9999 0.0001
2
 0.9999 0.0001
2
 0.9999 0.0001
2
 0.9999 0.0001
2
 0.9999 0.0001
2
 0.9991 0.0009
2
 0.99992 8e-05
2
 0.9999 0.0001
2
 0.99999 1e-05
2
 0.9999 0.0001
2
 0.99998 2e-05
2
 1 1e-07
2
 0.9996 0.0004
2
 0.99996 4e-05
2
 0.99995 5e-05
2
 0.9999 0.0001
2
 0.9995 0.0005
2
 0.999973 2.7e-05
2
 0.99999 1e-05
2
 0.99995 5e-05
2
 0.99999 1e-05
2
 0.9999 0.0001
2
 0.9999 0.0001
2
 0.99982 0.00018
2
 0.999999 1e-06
2
 0.99985 0.00015
2
 0.9999 0.0001
2
 0.9995 0.0005
2
 0.99995 5e-05
2
 0.9999 0.0001
2
 0.9999 0.0001
2
 0.99985 0.00015
2
 0.9996 0.0004
2
 0.99998 2e-05
2
 0.99999 1e-05
2
 0.9999 0.0001
2
 0.9999 0.0001
2
 0.9998 0.0002
2
 0.9995 0.0005
2
 0.99999 1e-05
2
 0.9995 0.0005
2
 0.99922 0.00078
2
 0.9997 0.0003
2
 0.9998 0.0002
2
 0.99993 7e-05
2
 0.9991 0.0009
2
 0.99995 5e-05
2
 0.9998 0.0002
2
 0.9998 0.0002
2
 0.9998 0.0002
2
 0.9994 0.0006
2
 0.9999 0.0001
2
 0.99999 1e-05
2
 0.9999 0.0001
2
 0.9999 0.0001
2
 0.9995 0.0005
2
 0.99996 4e-05
2
 0.9998 0.0002
2
 0.9997 0.0003
2
 0.9999 0.0001
2
 0.99984 0.00016
2
 0.99993 7e-05
2
 0.9996 0.0004
2
 0.99997 3e-05
2
 0.999 0.001
2
 0.9999 0.0001
2
 1 1e-07
2
 0.996 0.004
2
 0.9996 0.0004
2
 0.9999 0.0001
2
 0.9999 0.0001
2
 0.99998 2e-05
2
 0.99995 5e-05
2
 0.9965 0.0035
2
 0.9999 0.0001
2
 0.9928 0.0072
2
 0.99996 4e-05
2
 0.9999 0.0001
2
 0.99985 0.00015
2
 0.99996 4e-05
2
 0.9999 0.0001
2
 0.9999 0.0001
2
 0.9999 0.0001
2
 0.9995 0.0005
2
 0.999977 2.291e-05
2
 0.996 0.004
2
 0.999999 1e-06
2
 0.9991 0.0009
2
 0.99989 0.00011
2
 0.99995 5e-05
2
 0.9999 0.0001
2
 1 2e-07
2
 0.99975 0.00025
2
 0.9988 0.0012
2
 0.99995 5e-05
2
 0.9999 0.0001
2
 0.9985 0.0015
2
 0.9999 0.0001
2
 0.99987 0.00013
2
 0.9999 0.0001
2
 0.999999 6.2e-07
2
 0.99995 5e-05
2
 0.99998 2e-05
2
 0.9999 0.0001
2
 1 1.2e-07
2
 0.999 0.001
2
 0.99996 4e-05
2
 0.9996 0.0004
2
 0.997 0.003
2
 0.99995 5e-05
2
 0.9999 0.0001
2
 0.999997 2.82e-06
2
 0.99998 2e-05
2
 0.9999 0.0001
2
 0.99999 1e-05
2
 0.9999 0.0001
2
 0.9995 0.0005
2
 0.9999 0.0001
2
 0.9999 0.0001
2
 0.9995 0.0005
2
 0.999996 4e-06
2
 0.9999 0.0001
2
 1 1.6e-07
2
 0.9999 0.0001
2
 0.9994 0.0006
2
 0.9999 0.0001
2
 0.9999 0.0001
2
 0.999907 9.332e-05
2
 0.9999 0.0001
2
 0.9994 0.0006
2
 0.99989 0.00011
2
 0.9999 0.0001
2
 0.999969 3.12e-05
2
 0.99995 5e-05
2
 0.999992 8e-06
2
 0.99975 0.00025
2
 0.9999 0.0001
2
 0.9999 0.0001
2
 0.99975 0.00025
2
 0.9646 0.0354
2
 0.99999 1e-05
2
 0.9999 0.0001
2
 0.99999 1e-05
2
 0.9998 0.0002
2
 0.9999 0.0001
2
 0.99998 2e-05
2
 0.9999 0.0001
2
 0.9999 0.0001
2
 0.9995 0.0005
2
 0.9995 0.0005
2
 0.99991 9e-05
2
 0.99991 9e-05
2
 0.9999 0.0001
2
 0.9999 0.0001
2
 0.99995 5e-05
2
 0.99996 4e-05
2
 0.99991 9e-05
2
 0.99997 3e-05
2
 0.9995 0.0005
2
 0.99995 5e-05
2
 0.99994 6e-05
2
 0.9998 0.0002
2
 0.998 0.002
2
 0.9979 0.0021
2
 0.9998 0.0002
2
 0.9999 0.0001
2
 0.9999 0.0001
2
 0.999999 1e-06
2
 0.99997 3e-05
2
 0.9999 0.0001
2
 1 1e-07
2
 0.99992 8e-05
2
 0.999999 1e-06
2
 0.9995 0.0005
2
 0.99989 0.00011
2
 0.9999 0.0001
2
 0.9999 0.0001
2
 0.999999 1e-06
2
 0.99995 5e-05
2
 0.9999 0.0001
2
 0.9999 0.0001
2
 0.999 0.001
2
 0.99997 3e-05
2
 0.9999 0.0001
2
 0.99999 1e-05
2
 0.9999 0.0001
2
 0.99996 4e-05
2
 0.9995 0.0005
2
 0.9999 0.0001
2
 1 1e-07
2
 0.9995 0.0005
2
 0.99996 4e-05
2
 0.9998 0.0002
2
 0.9994 0.0006
2
 0.99997 3e-05
2
 0.99998 2e-05
2
 0.9999 0.0001
2
 0.99996 4e-05
2
 0.99993 7e-05
1
 1

